(set-option :produce-models true); benchmark generated from python API
(set-info :status unknown)
(declare-fun l_0_0_7 () Real)
(declare-fun l_0_0_1 () Real)
(declare-fun _a_0_ () Real)
(declare-fun l_0_0_9 () Real)
(declare-fun l_0_0_8 () Real)
(declare-fun l_0_0_3 () Real)
(declare-fun l_0_0_2 () Real)
(declare-fun _a_1_ () Real)
(declare-fun _a_2_ () Real)
(declare-fun l_0_0_5 () Real)
(declare-fun l_0_0_4 () Real)
(declare-fun l_0_0_11 () Real)
(declare-fun l_0_0_10 () Real)
(declare-fun _a_3_ () Real)
(declare-fun l_0_0_6 () Real)
(declare-fun l_0_0_12 () Real)
(declare-fun _a_4_ () Real)
(declare-fun _a_5_ () Real)
(declare-fun l_0_1_7 () Real)
(declare-fun l_0_1_13 () Real)
(declare-fun l_0_1_1 () Real)
(declare-fun l_0_1_8 () Real)
(declare-fun l_0_1_14 () Real)
(declare-fun l_0_1_2 () Real)
(declare-fun l_0_1_18 () Real)
(declare-fun l_0_1_17 () Real)
(declare-fun l_0_1_16 () Real)
(declare-fun l_0_1_12 () Real)
(declare-fun l_0_1_11 () Real)
(declare-fun l_0_1_10 () Real)
(declare-fun l_0_1_4 () Real)
(declare-fun l_0_1_6 () Real)
(declare-fun l_0_1_5 () Real)
(declare-fun l_0_1_9 () Real)
(declare-fun l_0_1_15 () Real)
(declare-fun l_0_1_3 () Real)
(declare-fun l_0_2_7 () Real)
(declare-fun l_0_2_13 () Real)
(declare-fun l_0_2_1 () Real)
(declare-fun l_0_2_9 () Real)
(declare-fun l_0_2_8 () Real)
(declare-fun l_0_2_12 () Real)
(declare-fun l_0_2_11 () Real)
(declare-fun l_0_2_10 () Real)
(declare-fun l_0_2_3 () Real)
(declare-fun l_0_2_2 () Real)
(declare-fun l_0_2_5 () Real)
(declare-fun l_0_2_4 () Real)
(declare-fun l_0_2_6 () Real)
(declare-fun l_0_2_17 () Real)
(declare-fun l_0_2_15 () Real)
(declare-fun l_0_2_16 () Real)
(declare-fun l_0_2_14 () Real)
(declare-fun l_0_2_18 () Real)
(assert
 (let ((?x63 (* l_0_0_7 l_0_0_7)))
 (= (- (- _a_0_ (* (* 2.0 l_0_0_1) l_0_0_1)) ?x63) 0.0)))
(assert
 (let ((?x106 (* l_0_0_9 l_0_0_9)))
 (let ((?x104 (* l_0_0_8 l_0_0_8)))
 (let ((?x85 (* l_0_0_1 l_0_0_1)))
 (let ((?x97 (+ _a_1_ ?x85)))
 (let ((?x103 (- (- ?x97 (* (* 2.0 l_0_0_2) l_0_0_2)) (* (* 2.0 l_0_0_3) l_0_0_3))))
 (= (- (- ?x103 ?x104) ?x106) 0.0)))))))
(assert
 (let ((?x134 (- (- _a_2_ (* (* 4.0 l_0_0_1) l_0_0_2)) (* (* 2.0 l_0_0_7) l_0_0_8))))
 (= ?x134 0.0)))
(assert
 (let ((?x155 (- (- _a_3_ (* (* 2.0 l_0_0_10) l_0_0_8)) (* (* 2.0 l_0_0_11) l_0_0_9))))
 (let ((?x161 (- (- ?x155 (* (* 4.0 l_0_0_2) l_0_0_4)) (* (* 4.0 l_0_0_3) l_0_0_5))))
 (= ?x161 0.0))))
(assert
 (let ((?x193 (* l_0_0_12 l_0_0_12)))
 (let ((?x191 (* l_0_0_11 l_0_0_11)))
 (let ((?x192 (- (- (+ _a_4_ (* l_0_0_1 l_0_0_1)) (* l_0_0_10 l_0_0_10)) ?x191)))
 (let ((?x200 (- (- (- ?x192 ?x193) (* (* 2.0 l_0_0_4) l_0_0_4)) (* (* 2.0 l_0_0_5) l_0_0_5))))
 (= (- ?x200 (* (* 2.0 l_0_0_6) l_0_0_6)) 0.0))))))
(assert
 (let ((?x236 (- (- _a_5_ (* (* 4.0 l_0_0_1) l_0_0_4)) (* (* 2.0 l_0_0_10) l_0_0_7))))
 (= ?x236 0.0)))
(assert
 (= (* (* 2.0 l_0_0_1) l_0_0_2) 0.0))
(assert
 (= (* (* 2.0 l_0_0_1) l_0_0_4) 0.0))
(assert
 (let ((?x226 (* l_0_0_6 l_0_0_6)))
 (let ((?x220 (* l_0_0_5 l_0_0_5)))
 (let ((?x214 (* l_0_0_4 l_0_0_4)))
 (let ((?x115 (* l_0_0_3 l_0_0_3)))
 (let ((?x109 (* l_0_0_2 l_0_0_2)))
 (let ((?x256 (+ ?x109 ?x115)))
 (= (+ (+ (+ ?x256 ?x214) ?x220) ?x226) 0.0))))))))
(assert
 (let ((?x266 (+ (* (* 2.0 l_0_0_2) l_0_0_4) (* (* 2.0 l_0_0_3) l_0_0_5))))
 (= ?x266 0.0)))
(assert
 (let ((?x226 (* l_0_0_6 l_0_0_6)))
 (= (+ (+ (* l_0_0_4 l_0_0_4) (* l_0_0_5 l_0_0_5)) ?x226) 0.0)))
(assert
 (= (* (* 2.0 l_0_0_1) l_0_0_2) 0.0))
(assert
 (= (* (* 2.0 l_0_0_1) l_0_0_4) 0.0))
(assert
 (let ((?x115 (* l_0_0_3 l_0_0_3)))
 (let ((?x109 (* l_0_0_2 l_0_0_2)))
 (let ((?x256 (+ ?x109 ?x115)))
 (= ?x256 0.0)))))
(assert
 (let ((?x266 (+ (* (* 2.0 l_0_0_2) l_0_0_4) (* (* 2.0 l_0_0_3) l_0_0_5))))
 (= ?x266 0.0)))
(assert
 (>= l_0_0_1 0.0))
(assert
 (>= l_0_0_3 0.0))
(assert
 (>= l_0_0_6 0.0))
(assert
 (>= l_0_0_7 0.0))
(assert
 (>= l_0_0_9 0.0))
(assert
 (>= l_0_0_12 0.0))
(assert
 (let ((?x292 (+ (- (* (* (- _a_0_) l_0_1_1) l_0_1_1) (* l_0_1_13 l_0_1_13)) (* 3.0 (* l_0_1_7 l_0_1_7)))))
 (= (+ ?x292 (/ 121.0 100.0)) 0.0)))
(assert
 (let ((?x311 (- (* (* (* (- 2.0) _a_0_) l_0_1_1) l_0_1_2) (* (* _a_2_ l_0_1_1) l_0_1_1))))
 (let ((?x318 (+ (- ?x311 (* (* 2.0 l_0_1_13) l_0_1_14)) (* (* 6.0 l_0_1_7) l_0_1_8))))
 (= (+ ?x318 1.0) 0.0))))
(assert
 (let ((?x289 (* l_0_1_7 l_0_1_7)))
 (let ((?x366 (* l_0_1_18 l_0_1_18)))
 (let ((?x364 (* l_0_1_17 l_0_1_17)))
 (let ((?x362 (* l_0_1_16 l_0_1_16)))
 (let ((?x359 (* l_0_1_12 l_0_1_12)))
 (let ((?x360 (* 3.0 ?x359)))
 (let ((?x356 (* l_0_1_11 l_0_1_11)))
 (let ((?x357 (* 3.0 ?x356)))
 (let ((?x353 (* l_0_1_10 l_0_1_10)))
 (let ((?x354 (* 3.0 ?x353)))
 (let ((?x343 (* l_0_1_6 l_0_1_6)))
 (let ((?x344 (+ (+ (* l_0_1_4 l_0_1_4) (* l_0_1_5 l_0_1_5)) ?x343)))
 (let ((?x284 (- _a_0_)))
 (let ((?x352 (- (- (* ?x284 ?x344) (* (* _a_4_ l_0_1_1) l_0_1_1)) (* (* (* 2.0 _a_5_) l_0_1_1) l_0_1_4))))
 (let ((?x368 (- (- (- (- (+ (+ (+ ?x352 ?x354) ?x357) ?x360) ?x362) ?x364) ?x366) ?x289)))
 (= (- ?x368 (/ 1.0 5.0)) 0.0)))))))))))))))))
(assert
 (let ((?x414 (- (* (* (* (- 2.0) _a_0_) l_0_1_1) l_0_1_4) (* (* _a_5_ l_0_1_1) l_0_1_1))))
 (let ((?x419 (- (+ ?x414 (* (* 6.0 l_0_1_10) l_0_1_7)) (* (* 2.0 l_0_1_13) l_0_1_16))))
 (= ?x419 0.0))))
(assert
 (let ((?x289 (* l_0_1_7 l_0_1_7)))
 (let ((?x454 (* l_0_1_15 l_0_1_15)))
 (let ((?x452 (* l_0_1_14 l_0_1_14)))
 (let ((?x447 (- (* (- _a_0_) (+ (* l_0_1_2 l_0_1_2) (* l_0_1_3 l_0_1_3))) (* (* _a_1_ l_0_1_1) l_0_1_1))))
 (let ((?x455 (- (- (- ?x447 (* (* (* 2.0 _a_2_) l_0_1_1) l_0_1_2)) ?x452) ?x454)))
 (let ((?x462 (+ (+ (- ?x455 ?x289) (* 3.0 (* l_0_1_8 l_0_1_8))) (* 3.0 (* l_0_1_9 l_0_1_9)))))
 (= ?x462 0.0))))))))
(assert
 (let ((?x495 (+ (* (* 2.0 l_0_1_2) l_0_1_4) (* (* 2.0 l_0_1_3) l_0_1_5))))
 (let ((?x284 (- _a_0_)))
 (let ((?x501 (- (- (* ?x284 ?x495) (* (* (* 2.0 _a_2_) l_0_1_1) l_0_1_4)) (* (* _a_3_ l_0_1_1) l_0_1_1))))
 (let ((?x505 (+ (- ?x501 (* (* (* 2.0 _a_5_) l_0_1_1) l_0_1_2)) (* (* 6.0 l_0_1_10) l_0_1_8))))
 (let ((?x511 (- (+ ?x505 (* (* 6.0 l_0_1_11) l_0_1_9)) (* (* 2.0 l_0_1_14) l_0_1_16))))
 (= (- ?x511 (* (* 2.0 l_0_1_15) l_0_1_17)) 0.0)))))))
(assert
 (let ((?x570 (* (* 2.0 l_0_1_7) l_0_1_8)))
 (let ((?x568 (- (* (* (* (- 2.0) _a_1_) l_0_1_1) l_0_1_2) (* _a_2_ (+ (* l_0_1_2 l_0_1_2) (* l_0_1_3 l_0_1_3))))))
 (= (- ?x568 ?x570) 0.0))))
(assert
 (let ((?x604 (* 2.0 l_0_1_10)))
 (let ((?x605 (* ?x604 l_0_1_7)))
 (let ((?x495 (+ (* (* 2.0 l_0_1_2) l_0_1_4) (* (* 2.0 l_0_1_3) l_0_1_5))))
 (let ((?x601 (- (- (* (* (* (- 2.0) _a_1_) l_0_1_1) l_0_1_4) (* _a_2_ ?x495)) (* (* (* 2.0 _a_3_) l_0_1_1) l_0_1_2))))
 (let ((?x603 (- ?x601 (* _a_5_ (+ (* l_0_1_2 l_0_1_2) (* l_0_1_3 l_0_1_3))))))
 (= (- ?x603 ?x605) 0.0)))))))
(assert
 (let ((?x460 (* l_0_1_9 l_0_1_9)))
 (let ((?x457 (* l_0_1_8 l_0_1_8)))
 (let ((?x657 (- (* (- _a_1_) (+ (* l_0_1_2 l_0_1_2) (* l_0_1_3 l_0_1_3))) ?x457)))
 (= (- ?x657 ?x460) 0.0)))))
(assert
 (let ((?x680 (* (* 2.0 l_0_1_11) l_0_1_9)))
 (let ((?x604 (* 2.0 l_0_1_10)))
 (let ((?x677 (* ?x604 l_0_1_8)))
 (let ((?x495 (+ (* (* 2.0 l_0_1_2) l_0_1_4) (* (* 2.0 l_0_1_3) l_0_1_5))))
 (let ((?x655 (- _a_1_)))
 (let ((?x676 (- (* ?x655 ?x495) (* _a_3_ (+ (* l_0_1_2 l_0_1_2) (* l_0_1_3 l_0_1_3))))))
 (= (- (- ?x676 ?x677) ?x680) 0.0))))))))
(assert
 (let ((?x460 (* l_0_1_9 l_0_1_9)))
 (let ((?x457 (* l_0_1_8 l_0_1_8)))
 (let ((?x359 (* l_0_1_12 l_0_1_12)))
 (let ((?x356 (* l_0_1_11 l_0_1_11)))
 (let ((?x353 (* l_0_1_10 l_0_1_10)))
 (let ((?x495 (+ (* (* 2.0 l_0_1_2) l_0_1_4) (* (* 2.0 l_0_1_3) l_0_1_5))))
 (let ((?x343 (* l_0_1_6 l_0_1_6)))
 (let ((?x344 (+ (+ (* l_0_1_4 l_0_1_4) (* l_0_1_5 l_0_1_5)) ?x343)))
 (let ((?x655 (- _a_1_)))
 (let ((?x716 (- (- (* ?x655 ?x344) (* _a_3_ ?x495)) (* _a_4_ (+ (* l_0_1_2 l_0_1_2) (* l_0_1_3 l_0_1_3))))))
 (= (- (- (- (- (- ?x716 ?x353) ?x356) ?x359) ?x457) ?x460) 0.0))))))))))))
(assert
 (let ((?x570 (* (* 2.0 l_0_1_7) l_0_1_8)))
 (let ((?x495 (+ (* (* 2.0 l_0_1_2) l_0_1_4) (* (* 2.0 l_0_1_3) l_0_1_5))))
 (let ((?x343 (* l_0_1_6 l_0_1_6)))
 (let ((?x344 (+ (+ (* l_0_1_4 l_0_1_4) (* l_0_1_5 l_0_1_5)) ?x343)))
 (let ((?x775 (- _a_2_)))
 (let ((?x782 (- (- (* ?x775 ?x344) (* (* (* 2.0 _a_3_) l_0_1_1) l_0_1_4)) (* (* (* 2.0 _a_4_) l_0_1_1) l_0_1_2))))
 (= (- (- ?x782 (* _a_5_ ?x495)) ?x570) 0.0))))))))
(assert
 (let ((?x680 (* (* 2.0 l_0_1_11) l_0_1_9)))
 (let ((?x604 (* 2.0 l_0_1_10)))
 (let ((?x677 (* ?x604 l_0_1_8)))
 (let ((?x495 (+ (* (* 2.0 l_0_1_2) l_0_1_4) (* (* 2.0 l_0_1_3) l_0_1_5))))
 (let ((?x343 (* l_0_1_6 l_0_1_6)))
 (let ((?x344 (+ (+ (* l_0_1_4 l_0_1_4) (* l_0_1_5 l_0_1_5)) ?x343)))
 (let ((?x829 (- _a_3_)))
 (= (- (- (- (* ?x829 ?x344) (* _a_4_ ?x495)) ?x677) ?x680) 0.0)))))))))
(assert
 (let ((?x604 (* 2.0 l_0_1_10)))
 (let ((?x605 (* ?x604 l_0_1_7)))
 (let ((?x343 (* l_0_1_6 l_0_1_6)))
 (let ((?x344 (+ (+ (* l_0_1_4 l_0_1_4) (* l_0_1_5 l_0_1_5)) ?x343)))
 (let ((?x872 (- (- (* (* (* (- 2.0) _a_4_) l_0_1_1) l_0_1_4) (* _a_5_ ?x344)) ?x605)))
 (= ?x872 0.0)))))))
(assert
 (let ((?x359 (* l_0_1_12 l_0_1_12)))
 (let ((?x356 (* l_0_1_11 l_0_1_11)))
 (let ((?x353 (* l_0_1_10 l_0_1_10)))
 (let ((?x343 (* l_0_1_6 l_0_1_6)))
 (let ((?x344 (+ (+ (* l_0_1_4 l_0_1_4) (* l_0_1_5 l_0_1_5)) ?x343)))
 (let ((?x896 (- _a_4_)))
 (= (- (- (- (* ?x896 ?x344) ?x353) ?x356) ?x359) 0.0))))))))
(assert
 (>= l_0_1_1 0.0))
(assert
 (>= l_0_1_3 0.0))
(assert
 (>= l_0_1_6 0.0))
(assert
 (>= l_0_1_7 0.0))
(assert
 (>= l_0_1_9 0.0))
(assert
 (>= l_0_1_12 0.0))
(assert
 (>= l_0_1_13 0.0))
(assert
 (>= l_0_1_15 0.0))
(assert
 (>= l_0_1_18 0.0))
(assert
 (let ((?x940 (* l_0_2_13 l_0_2_13)))
 (let ((?x934 (* 1.0 _a_3_)))
 (let ((?x931 (+ (+ (* (* (- _a_0_) l_0_2_1) l_0_2_1) _a_0_) (* 1.0 _a_1_))))
 (let ((?x939 (- (+ (- (+ ?x931 (* 1.0 _a_2_)) ?x934) (* 1.0 _a_4_)) (* 1.0 _a_5_))))
 (= (- (- ?x939 ?x940) (* (* 3.0 l_0_2_7) l_0_2_7)) 0.0))))))
(assert
 (let ((?x994 (* l_0_2_9 l_0_2_9)))
 (let ((?x992 (* l_0_2_8 l_0_2_8)))
 (let ((?x990 (* l_0_2_12 l_0_2_12)))
 (let ((?x988 (* l_0_2_11 l_0_2_11)))
 (let ((?x986 (* l_0_2_10 l_0_2_10)))
 (let ((?x977 (+ (* (* 2.0 l_0_2_2) l_0_2_4) (* (* 2.0 l_0_2_3) l_0_2_5))))
 (let ((?x971 (* 4.0 _a_1_)))
 (let ((?x968 (* l_0_2_6 l_0_2_6)))
 (let ((?x969 (+ (+ (* l_0_2_4 l_0_2_4) (* l_0_2_5 l_0_2_5)) ?x968)))
 (let ((?x655 (- _a_1_)))
 (let ((?x985 (- (+ (- (+ (* ?x655 ?x969) ?x971) (* _a_3_ ?x977)) _a_3_) (* _a_4_ (+ (* l_0_2_2 l_0_2_2) (* l_0_2_3 l_0_2_3))))))
 (= (+ (+ (+ (+ (+ ?x985 ?x986) ?x988) ?x990) ?x992) ?x994) 0.0)))))))))))))
(assert
 (let ((?x1049 (* (* 2.0 l_0_2_11) l_0_2_9)))
 (let ((?x1045 (* 2.0 l_0_2_10)))
 (let ((?x1046 (* ?x1045 l_0_2_8)))
 (let ((?x971 (* 4.0 _a_1_)))
 (let ((?x977 (+ (* (* 2.0 l_0_2_2) l_0_2_4) (* (* 2.0 l_0_2_3) l_0_2_5))))
 (let ((?x655 (- _a_1_)))
 (let ((?x1044 (- (+ (* ?x655 ?x977) ?x971) (* _a_3_ (+ (* l_0_2_2 l_0_2_2) (* l_0_2_3 l_0_2_3))))))
 (= (+ (+ ?x1044 ?x1046) ?x1049) 0.0)))))))))
(assert
 (let ((?x598 (* 2.0 _a_3_)))
 (let ((?x448 (* 2.0 _a_2_)))
 (let ((?x971 (* 4.0 _a_1_)))
 (let ((?x977 (+ (* (* 2.0 l_0_2_2) l_0_2_4) (* (* 2.0 l_0_2_3) l_0_2_5))))
 (let ((?x284 (- _a_0_)))
 (let ((?x1082 (+ (- (+ (* ?x284 ?x977) ?x971) (* (* ?x448 l_0_2_1) l_0_2_4)) ?x448)))
 (let ((?x1089 (- (- (- ?x1082 (* (* _a_3_ l_0_2_1) l_0_2_1)) ?x598) (* (* (* 2.0 _a_5_) l_0_2_1) l_0_2_2))))
 (let ((?x1095 (- (- ?x1089 (* (* 6.0 l_0_2_10) l_0_2_8)) (* (* 6.0 l_0_2_11) l_0_2_9))))
 (let ((?x1101 (- (- ?x1095 (* (* 2.0 l_0_2_14) l_0_2_16)) (* (* 2.0 l_0_2_15) l_0_2_17))))
 (= ?x1101 0.0)))))))))))
(assert
 (let ((?x994 (* l_0_2_9 l_0_2_9)))
 (let ((?x992 (* l_0_2_8 l_0_2_8)))
 (let ((?x1154 (+ (* (- _a_1_) (+ (* l_0_2_2 l_0_2_2) (* l_0_2_3 l_0_2_3))) _a_1_)))
 (= (+ (+ ?x1154 ?x992) ?x994) 0.0)))))
(assert
 (let ((?x958 (* l_0_2_7 l_0_2_7)))
 (let ((?x1178 (* l_0_2_15 l_0_2_15)))
 (let ((?x1176 (* l_0_2_14 l_0_2_14)))
 (let ((?x934 (* 1.0 _a_3_)))
 (let ((?x1169 (* 2.0 _a_1_)))
 (let ((?x1168 (- (* (- _a_0_) (+ (* l_0_2_2 l_0_2_2) (* l_0_2_3 l_0_2_3))) (* (* _a_1_ l_0_2_1) l_0_2_1))))
 (let ((?x1173 (+ (- (+ ?x1168 ?x1169) (* (* (* 2.0 _a_2_) l_0_2_1) l_0_2_2)) _a_2_)))
 (let ((?x1183 (- (+ (- (- (+ (- ?x1173 ?x934) _a_4_) ?x1176) ?x1178) ?x958) (* (* 3.0 l_0_2_8) l_0_2_8))))
 (= (- ?x1183 (* (* 3.0 l_0_2_9) l_0_2_9)) 0.0))))))))))
(assert
 (let ((?x1049 (* (* 2.0 l_0_2_11) l_0_2_9)))
 (let ((?x1045 (* 2.0 l_0_2_10)))
 (let ((?x1046 (* ?x1045 l_0_2_8)))
 (let ((?x977 (+ (* (* 2.0 l_0_2_2) l_0_2_4) (* (* 2.0 l_0_2_3) l_0_2_5))))
 (let ((?x598 (* 2.0 _a_3_)))
 (let ((?x968 (* l_0_2_6 l_0_2_6)))
 (let ((?x969 (+ (+ (* l_0_2_4 l_0_2_4) (* l_0_2_5 l_0_2_5)) ?x968)))
 (let ((?x829 (- _a_3_)))
 (= (+ (+ (- (+ (* ?x829 ?x969) ?x598) (* _a_4_ ?x977)) ?x1046) ?x1049) 0.0))))))))))
(assert
 (let ((?x958 (* l_0_2_7 l_0_2_7)))
 (let ((?x1285 (* l_0_2_18 l_0_2_18)))
 (let ((?x1283 (* l_0_2_17 l_0_2_17)))
 (let ((?x1281 (* l_0_2_16 l_0_2_16)))
 (let ((?x779 (* 2.0 _a_4_)))
 (let ((?x934 (* 1.0 _a_3_)))
 (let ((?x968 (* l_0_2_6 l_0_2_6)))
 (let ((?x969 (+ (+ (* l_0_2_4 l_0_2_4) (* l_0_2_5 l_0_2_5)) ?x968)))
 (let ((?x284 (- _a_0_)))
 (let ((?x1268 (- (- (+ (* ?x284 ?x969) ?x934) (* (* _a_4_ l_0_2_1) l_0_2_1)) ?x779)))
 (let ((?x1274 (- (+ (- ?x1268 (* (* (* 2.0 _a_5_) l_0_2_1) l_0_2_4)) _a_5_) (* (* 3.0 l_0_2_10) l_0_2_10))))
 (let ((?x1280 (- (- ?x1274 (* (* 3.0 l_0_2_11) l_0_2_11)) (* (* 3.0 l_0_2_12) l_0_2_12))))
 (= (+ (- (- (- ?x1280 ?x1281) ?x1283) ?x1285) ?x958) 0.0))))))))))))))
(assert
 (let ((?x1045 (* 2.0 l_0_2_10)))
 (let ((?x1349 (* ?x1045 l_0_2_7)))
 (let ((?x598 (* 2.0 _a_3_)))
 (let ((?x977 (+ (* (* 2.0 l_0_2_2) l_0_2_4) (* (* 2.0 l_0_2_3) l_0_2_5))))
 (let ((?x1345 (- (- (* (* (* (- 2.0) _a_1_) l_0_2_1) l_0_2_4) (* _a_2_ ?x977)) (* (* ?x598 l_0_2_1) l_0_2_2))))
 (let ((?x1348 (- (+ ?x1345 ?x598) (* _a_5_ (+ (* l_0_2_2 l_0_2_2) (* l_0_2_3 l_0_2_3))))))
 (= (+ ?x1348 ?x1349) 0.0))))))))
(assert
 (let ((?x1399 (* (* 2.0 l_0_2_7) l_0_2_8)))
 (let ((?x1396 (- (* (* (* (- 2.0) _a_1_) l_0_2_1) l_0_2_2) (* _a_2_ (+ (* l_0_2_2 l_0_2_2) (* l_0_2_3 l_0_2_3))))))
 (= (+ (+ ?x1396 _a_3_) ?x1399) 0.0))))
(assert
 (let ((?x779 (* 2.0 _a_4_)))
 (let ((?x934 (* 1.0 _a_3_)))
 (let ((?x1424 (- (* (* (* (- 2.0) _a_0_) l_0_2_1) l_0_2_2) (* (* _a_2_ l_0_2_1) l_0_2_1))))
 (let ((?x1430 (- (+ (- (+ ?x1424 ?x934) ?x779) _a_5_) (* (* 2.0 l_0_2_13) l_0_2_14))))
 (= (- ?x1430 (* (* 6.0 l_0_2_7) l_0_2_8)) 0.0))))))
(assert
 (let ((?x990 (* l_0_2_12 l_0_2_12)))
 (let ((?x988 (* l_0_2_11 l_0_2_11)))
 (let ((?x986 (* l_0_2_10 l_0_2_10)))
 (let ((?x968 (* l_0_2_6 l_0_2_6)))
 (let ((?x969 (+ (+ (* l_0_2_4 l_0_2_4) (* l_0_2_5 l_0_2_5)) ?x968)))
 (let ((?x896 (- _a_4_)))
 (= (+ (+ (+ (+ (* ?x896 ?x969) _a_4_) ?x986) ?x988) ?x990) 0.0))))))))
(assert
 (let ((?x1399 (* (* 2.0 l_0_2_7) l_0_2_8)))
 (let ((?x977 (+ (* (* 2.0 l_0_2_2) l_0_2_4) (* (* 2.0 l_0_2_3) l_0_2_5))))
 (let ((?x779 (* 2.0 _a_4_)))
 (let ((?x968 (* l_0_2_6 l_0_2_6)))
 (let ((?x969 (+ (+ (* l_0_2_4 l_0_2_4) (* l_0_2_5 l_0_2_5)) ?x968)))
 (let ((?x775 (- _a_2_)))
 (let ((?x1477 (- (- (* ?x775 ?x969) (* (* (* 2.0 _a_3_) l_0_2_1) l_0_2_4)) (* (* ?x779 l_0_2_1) l_0_2_2))))
 (= (+ (- (+ ?x1477 ?x779) (* _a_5_ ?x977)) ?x1399) 0.0)))))))))
(assert
 (let ((?x1525 (- (* (* (* (- 2.0) _a_0_) l_0_2_1) l_0_2_4) (* (* _a_5_ l_0_2_1) l_0_2_1))))
 (let ((?x1529 (- (- ?x1525 (* (* 6.0 l_0_2_10) l_0_2_7)) (* (* 2.0 l_0_2_13) l_0_2_16))))
 (= ?x1529 0.0))))
(assert
 (let ((?x1045 (* 2.0 l_0_2_10)))
 (let ((?x1349 (* ?x1045 l_0_2_7)))
 (let ((?x968 (* l_0_2_6 l_0_2_6)))
 (let ((?x969 (+ (+ (* l_0_2_4 l_0_2_4) (* l_0_2_5 l_0_2_5)) ?x968)))
 (let ((?x1556 (+ (- (* (* (* (- 2.0) _a_4_) l_0_2_1) l_0_2_4) (* _a_5_ ?x969)) ?x1349)))
 (= ?x1556 0.0)))))))
(assert
 (>= l_0_2_1 0.0))
(assert
 (>= l_0_2_3 0.0))
(assert
 (>= l_0_2_6 0.0))
(assert
 (>= l_0_2_7 0.0))
(assert
 (>= l_0_2_9 0.0))
(assert
 (>= l_0_2_12 0.0))
(assert
 (>= l_0_2_13 0.0))
(assert
 (>= l_0_2_15 0.0))
(assert
 (>= l_0_2_18 0.0))
(check-sat)
(get-model)